\* PC3 *\
Minimize
OBJ: 14 AI_IO3200 + 8 AI_IO3210 + 8 AI_IO3220 + 4 AI_IO3500 + 8 AI_IO3510
 + 4 AI_IO3520 + 6 AI_IO3530 + 8 AI_IO3540 + 8 AI_IO3545 + 3 AI_IO3546
 + 7 AI_IO3550 + 4 AO_IO3300 + 8 AO_IO3310 + 2 AO_IO3510 + 4 AO_IO3520
 + 2 AO_IO3530 + 2 AO_IO3540 + 2 AO_IO3545 + 5 AO_IO3550 + 16 PCA_IO3000
 + 16 PCA_IO3010 + 8 PCA_IO3020 + 8 PCA_IO3030 + 16 PCA_IO3040 + 8 PCA_IO3100
 + 12 PCA_IO3130 + 16 PCA_IO3400 + 16 PCA_IO3410 + 16 PCA_IO3420
 + 8 PCA_IO3500 + 34 PCA_IO3510 + 42 PCA_IO3540 + 42 PCA_IO3545
 + 36 PCA_IO3546 + 16 PCA_IO3550
Subject To
_C1: 16 PCA_IO3000 + 16 PCA_IO3040 + 8 PCA_IO3400 + 8 PCA_IO3420
 + 4 PCA_IO3500 + 24 PCA_IO3510 + 24 PCA_IO3540 + 24 PCA_IO3545
 + 18 PCA_IO3546 >= 0
_C10: 14 AI_IO3200 + 8 AI_IO3210 + 8 AI_IO3220 + 4 AI_IO3500 + 8 AI_IO3510
 + 4 AI_IO3520 + 6 AI_IO3530 + 8 AI_IO3540 + 8 AI_IO3545 + 3 AI_IO3546
 + 7 AI_IO3550 >= 0
_C11: 4 AO_IO3300 + 8 AO_IO3310 + 2 AO_IO3510 + 4 AO_IO3520 + 2 AO_IO3530
 + 2 AO_IO3540 + 2 AO_IO3545 + 5 AO_IO3550 >= 0
_C2: 8 PCA_IO3030 >= 0
_C3: 8 PCA_IO3100 + 8 PCA_IO3400 + 8 PCA_IO3420 + 4 PCA_IO3500 + 10 PCA_IO3510
 + 18 PCA_IO3540 + 18 PCA_IO3545 + 18 PCA_IO3546 >= 0
_C4: 10 PCA_IO3550 >= 0
_dummy: __dummy = 0
_C5: __dummy >= 0
_C6: 6 PCA_IO3550 >= 0
_C7: 16 PCA_IO3010 + 8 PCA_IO3410 >= 0
_C8: 8 PCA_IO3020 >= 0
_C9: 12 PCA_IO3130 + 8 PCA_IO3410 >= 0
Bounds
0 <= AI_IO3200
0 <= AI_IO3210
0 <= AI_IO3220
0 <= AI_IO3500
0 <= AI_IO3510
0 <= AI_IO3520
0 <= AI_IO3530
0 <= AI_IO3540
0 <= AI_IO3545
0 <= AI_IO3546
0 <= AI_IO3550
0 <= AO_IO3300
0 <= AO_IO3310
0 <= AO_IO3510
0 <= AO_IO3520
0 <= AO_IO3530
0 <= AO_IO3540
0 <= AO_IO3545
0 <= AO_IO3550
0 <= PCA_IO3000
0 <= PCA_IO3010
0 <= PCA_IO3020
0 <= PCA_IO3030
0 <= PCA_IO3040
0 <= PCA_IO3100
0 <= PCA_IO3130
0 <= PCA_IO3400
0 <= PCA_IO3410
0 <= PCA_IO3420
0 <= PCA_IO3500
0 <= PCA_IO3510
0 <= PCA_IO3540
0 <= PCA_IO3545
0 <= PCA_IO3546
0 <= PCA_IO3550
__dummy = 0
Generals
AI_IO3200
AI_IO3210
AI_IO3220
AI_IO3500
AI_IO3510
AI_IO3520
AI_IO3530
AI_IO3540
AI_IO3545
AI_IO3546
AI_IO3550
AO_IO3300
AO_IO3310
AO_IO3510
AO_IO3520
AO_IO3530
AO_IO3540
AO_IO3545
AO_IO3550
PCA_IO3000
PCA_IO3010
PCA_IO3020
PCA_IO3030
PCA_IO3040
PCA_IO3100
PCA_IO3130
PCA_IO3400
PCA_IO3410
PCA_IO3420
PCA_IO3500
PCA_IO3510
PCA_IO3540
PCA_IO3545
PCA_IO3546
PCA_IO3550
End
